(set-logic QF_S)
(declare-fun var0 () String)
(declare-fun var1 () String)
(declare-fun var2 () String)
(declare-fun var3 () String)
(declare-fun var4 () String)
(declare-fun var5 () String)
(declare-fun var6 () String)
(declare-fun var7 () String)
(declare-fun var8 () String)
(declare-fun var9 () String)
(declare-fun var10 () String)
(declare-fun var11 () String)
(declare-fun var12 () String)
(declare-fun var13 () String)
(declare-fun var14 () String)
(declare-fun var15 () String)
(declare-fun var16 () String)
(declare-fun var17 () String)
(declare-fun var18 () String)
(declare-fun var19 () String)
(declare-fun var20 () String)
(declare-fun var21 () String)
(declare-fun var22 () String)
(declare-fun var23 () String)
(declare-fun var24 () String)
(declare-fun var25 () String)
(declare-fun var26 () String)
(declare-fun var27 () String)
(declare-fun var28 () String)
(declare-fun var29 () String)
(declare-fun var30 () String)
(declare-fun var31 () String)
(declare-fun var32 () String)
(declare-fun var33 () String)
(declare-fun var34 () String)
(declare-fun var35 () String)
(declare-fun var36 () String)
(declare-fun var37 () String)
(declare-fun var38 () String)
(declare-fun var39 () String)
(declare-fun var40 () String)
(declare-fun var41 () String)
(declare-fun var42 () String)
(declare-fun var43 () String)
(declare-fun var44 () String)
(declare-fun var45 () String)
(declare-fun var46 () String)
(declare-fun var47 () String)
(declare-fun var48 () String)
(declare-fun var49 () String)
(declare-fun var50 () String)
(declare-fun var51 () String)
(declare-fun var52 () String)
(declare-fun var53 () String)
(declare-fun var54 () String)
(declare-fun var55 () String)
(declare-fun var56 () String)
(declare-fun var57 () String)
(declare-fun var58 () String)
(declare-fun var59 () String)
(declare-fun var60 () String)
(assert (= var0 (Concat var1 var2)))
(assert (= var2 (Concat var3 var4)))
(assert (= var4 (Concat var5 var6)))
(assert (= var6 (Concat var7 var8)))
(assert (= var8 (Concat var9 var10)))
(assert (= var10 (Concat var11 var12)))
(assert (= var12 (Concat var13 var14)))
(assert (= var14 (Concat var15 var16)))
(assert (= var16 (Concat var17 var18)))
(assert (= var18 (Concat var19 var20)))
(assert (= var20 (Concat var21 var22)))
(assert (= var22 (Concat var23 var24)))
(assert (= var24 (Concat var25 var26)))
(assert (= var26 (Concat var27 var28)))
(assert (= var28 (Concat var29 var30)))
(assert (= var30 (Concat var31 var32)))
(assert (= var32 (Concat var33 var34)))
(assert (= var34 (Concat var35 var36)))
(assert (= var36 (Concat var37 var38)))
(assert (= var38 (Concat var39 var40)))
(assert (= var40 (Concat var41 var42)))
(assert (= var42 (Concat var43 var44)))
(assert (= var44 (Concat var45 var46)))
(assert (= var46 (Concat var47 var48)))
(assert (= var48 (Concat var49 var50)))
(assert (= var50 (Concat var51 var52)))
(assert (= var52 (Concat var53 var54)))
(assert (= var54 (Concat var55 var56)))
(assert (= var56 (Concat var57 var58)))
(assert (= var58 (Concat var59 var60)))
(assert (= var0 "solution"))
(assert (= "c" (CharAt var18 84)))
(assert (= "U" (CharAt var26 289)))
(assert (= "n" (CharAt var52 854)))
(assert (= "V" (CharAt var15 600)))
(assert (= "+" (CharAt var56 702)))
(assert (= "m" (CharAt var7 344)))
(assert (= "B" (CharAt var37 500)))
(assert (= "H" (CharAt var47 793)))
(assert (= "N" (CharAt var38 72)))
(assert (= "}" (CharAt var34 429)))
(assert (= "h" (CharAt var0 828)))
(assert (= "t" (CharAt var32 62)))
(assert (= "5" (CharAt var7 63)))
(assert (= "q" (CharAt var26 887)))
(assert (= "f" (CharAt var47 861)))
(assert (= "c" (CharAt var30 934)))
(assert (= "9" (CharAt var36 883)))
(assert (= "}" (CharAt var1 768)))
(assert (= "l" (CharAt var44 919)))
(assert (= "X" (CharAt var48 0)))
(assert (= "s" (CharAt var50 186)))
(assert (= "/" (CharAt var0 557)))
(assert (= "A" (CharAt var0 237)))
(assert (= "3" (CharAt var47 639)))
(assert (= "-" (CharAt var16 168)))
(assert (= "2" (CharAt var56 547)))
(assert (= "'" (CharAt var18 359)))
(assert (= "S" (CharAt var30 796)))
(assert (= "p" (CharAt var49 58)))
(assert (= "~" (CharAt var38 745)))
(assert (= "e" (CharAt var48 505)))
(assert (= "L" (CharAt var42 764)))
(assert (= "j" (CharAt var58 879)))
(assert (= "\\" (CharAt var14 199)))
(assert (= "n" (CharAt var25 535)))
(assert (= "[" (CharAt var7 433)))
(assert (= "V" (CharAt var39 598)))
(assert (= "~" (CharAt var35 632)))
(assert (= "(" (CharAt var7 961)))
(assert (= "N" (CharAt var48 708)))
(assert (= "," (CharAt var38 46)))
(assert (= "R" (CharAt var14 43)))
(assert (= "H" (CharAt var49 272)))
(assert (= "Y" (CharAt var15 16)))
(assert (= "k" (CharAt var29 442)))
(assert (= "B" (CharAt var60 899)))
(assert (= "C" (CharAt var32 122)))
(assert (= "]" (CharAt var28 783)))
(assert (= "Z" (CharAt var14 774)))
(assert (= "j" (CharAt var34 791)))
(assert (= "Y" (CharAt var30 585)))
(assert (= "!" (CharAt var55 437)))
(assert (= "-" (CharAt var45 88)))
(assert (= "T" (CharAt var58 583)))
(assert (= "," (CharAt var1 618)))
(assert (= "D" (CharAt var52 197)))
(assert (= "/" (CharAt var54 118)))
(assert (= "J" (CharAt var29 650)))
(assert (= "z" (CharAt var0 543)))
(assert (= "p" (CharAt var7 517)))
(assert (= "#" (CharAt var50 302)))
(assert (= "O" (CharAt var23 514)))
(assert (= "G" (CharAt var4 633)))
(assert (= "S" (CharAt var51 38)))
(assert (= "5" (CharAt var10 758)))
(assert (= "l" (CharAt var24 889)))
(assert (= "H" (CharAt var23 868)))
(assert (= "z" (CharAt var16 653)))
(assert (= "^" (CharAt var11 940)))
(assert (= "L" (CharAt var6 862)))
(assert (= "{" (CharAt var51 91)))
(assert (= "K" (CharAt var22 911)))
(assert (= "8" (CharAt var45 992)))
(assert (= "E" (CharAt var54 817)))
(assert (= ")" (CharAt var27 554)))
(assert (= "+" (CharAt var23 292)))
(assert (= "a" (CharAt var51 416)))
(assert (= "8" (CharAt var0 172)))
(assert (= ":" (CharAt var41 187)))
(assert (= "`" (CharAt var35 295)))
(assert (= "|" (CharAt var35 476)))
(assert (= "8" (CharAt var33 665)))
(assert (= "a" (CharAt var39 428)))
(assert (= "i" (CharAt var57 688)))
(assert (= "-" (CharAt var50 81)))
(assert (= "q" (CharAt var34 3)))
(assert (= "L" (CharAt var9 735)))
(assert (= "V" (CharAt var56 567)))
(assert (= "O" (CharAt var48 504)))
(assert (= "n" (CharAt var27 720)))
(assert (= "b" (CharAt var45 828)))
(assert (= "P" (CharAt var58 771)))
(assert (= "A" (CharAt var3 203)))
(assert (= "9" (CharAt var50 929)))
(assert (= "R" (CharAt var24 937)))
(assert (= ">" (CharAt var2 430)))
(assert (= "'" (CharAt var36 105)))
(assert (= "k" (CharAt var20 835)))
(assert (= "#" (CharAt var16 684)))
(assert (= "C" (CharAt var11 577)))
(assert (= "o" (CharAt var6 278)))
(assert (= "D" (CharAt var29 551)))
(assert (= "@" (CharAt var55 51)))
(assert (= "G" (CharAt var24 208)))
(assert (= "$" (CharAt var19 648)))
(assert (= "@" (CharAt var52 145)))
(assert (= "A" (CharAt var11 85)))
(assert (= "#" (CharAt var12 912)))
(assert (= "U" (CharAt var15 343)))
(assert (= "-" (CharAt var15 622)))
(assert (= "}" (CharAt var59 512)))
(assert (= "H" (CharAt var60 832)))
(assert (= "0" (CharAt var23 746)))
(assert (= "M" (CharAt var51 229)))
(assert (= ":" (CharAt var29 467)))
(assert (= "7" (CharAt var17 775)))
(assert (= "~" (CharAt var16 587)))
(assert (= "0" (CharAt var3 625)))
(assert (= "C" (CharAt var30 849)))
(assert (= "M" (CharAt var22 724)))
(assert (= "j" (CharAt var44 829)))
(assert (= "@" (CharAt var38 596)))
(assert (= "^" (CharAt var33 924)))
(assert (= "W" (CharAt var42 14)))
(assert (= "Y" (CharAt var54 915)))
(assert (= "R" (CharAt var37 121)))
(assert (= "#" (CharAt var40 498)))
(assert (= "k" (CharAt var41 536)))
(assert (= "`" (CharAt var46 481)))
(assert (= "5" (CharAt var28 952)))
(assert (= "A" (CharAt var14 24)))
(assert (= "." (CharAt var45 305)))
(assert (= "v" (CharAt var44 589)))
(assert (= "o" (CharAt var48 88)))
(assert (= "0" (CharAt var57 646)))
(assert (= "s" (CharAt var9 604)))
(assert (= "=" (CharAt var2 66)))
(assert (= "u" (CharAt var3 987)))
(assert (= "A" (CharAt var59 510)))
(assert (= "A" (CharAt var59 695)))
(assert (= "~" (CharAt var35 885)))
(assert (= "/" (CharAt var5 823)))
(assert (= "R" (CharAt var1 12)))
(assert (= "L" (CharAt var54 843)))
(assert (= "M" (CharAt var11 223)))
(assert (= "V" (CharAt var11 656)))
(assert (= ")" (CharAt var53 108)))
(assert (= "]" (CharAt var40 307)))
(assert (= "]" (CharAt var33 322)))
(assert (= "j" (CharAt var13 623)))
(assert (= "8" (CharAt var47 456)))
(assert (= "B" (CharAt var22 475)))
(assert (= "R" (CharAt var39 558)))
(assert (= "-" (CharAt var31 548)))
(assert (= "e" (CharAt var8 660)))
(assert (= "t" (CharAt var5 147)))
(assert (= "^" (CharAt var2 162)))
(assert (= "w" (CharAt var7 916)))
(assert (= "s" (CharAt var56 447)))
(assert (= "O" (CharAt var31 18)))
(assert (= "G" (CharAt var58 614)))
(assert (= "v" (CharAt var16 550)))
(assert (= "o" (CharAt var31 906)))
(assert (= "y" (CharAt var17 642)))
(assert (= "6" (CharAt var25 681)))
(assert (= "Q" (CharAt var13 573)))
(assert (= "6" (CharAt var16 391)))
(assert (= "]" (CharAt var55 1)))
(assert (= "l" (CharAt var13 595)))
(assert (= "'" (CharAt var58 901)))
(assert (= "\\" (CharAt var12 607)))
(assert (= "+" (CharAt var50 922)))
(assert (= "`" (CharAt var41 114)))
(assert (= "2" (CharAt var31 969)))
(assert (= "O" (CharAt var15 748)))
(assert (= "V" (CharAt var59 947)))
(assert (= "&" (CharAt var18 15)))
(assert (= "U" (CharAt var31 655)))
(assert (= "3" (CharAt var59 116)))
(assert (= "g" (CharAt var34 608)))
(assert (= "u" (CharAt var44 264)))
(assert (= "Z" (CharAt var36 285)))
(assert (= "0" (CharAt var8 563)))
(assert (= "0" (CharAt var9 806)))
(assert (= "2" (CharAt var35 629)))
(assert (= "?" (CharAt var40 942)))
(assert (= "S" (CharAt var16 281)))
(assert (= "Q" (CharAt var30 212)))
(assert (= "R" (CharAt var8 307)))
(assert (= "z" (CharAt var34 782)))
(assert (= "s" (CharAt var4 543)))
(assert (= "," (CharAt var7 76)))
(assert (= "P" (CharAt var45 782)))
(assert (= "k" (CharAt var42 275)))
(assert (= "y" (CharAt var56 304)))
(assert (= "8" (CharAt var29 525)))
(assert (= "}" (CharAt var10 573)))
(assert (= "@" (CharAt var12 853)))
(assert (= "}" (CharAt var20 108)))
(assert (= "L" (CharAt var1 606)))
(assert (= "4" (CharAt var22 783)))
(assert (= "d" (CharAt var31 730)))
(assert (= "D" (CharAt var1 830)))
(assert (= "@" (CharAt var38 876)))
(assert (= "x" (CharAt var49 886)))
(assert (= "2" (CharAt var29 71)))
(assert (= "$" (CharAt var15 740)))
(assert (= "3" (CharAt var34 284)))
(assert (= "%" (CharAt var48 606)))
(assert (= "{" (CharAt var6 539)))
(assert (= "J" (CharAt var42 552)))
(assert (= "9" (CharAt var38 965)))
(assert (= "\\" (CharAt var21 99)))
(assert (= "i" (CharAt var48 494)))
(assert (= ">" (CharAt var1 654)))
(assert (= ":" (CharAt var42 707)))
(assert (= "5" (CharAt var9 217)))
(assert (= "L" (CharAt var18 207)))
(assert (= "T" (CharAt var14 270)))
(assert (= "I" (CharAt var33 880)))
(assert (= "Y" (CharAt var27 849)))
(assert (= "T" (CharAt var25 487)))
(assert (= "&" (CharAt var46 828)))
(assert (= "}" (CharAt var54 689)))
(assert (= "Q" (CharAt var25 290)))
(assert (= "(" (CharAt var39 981)))
(assert (= "k" (CharAt var11 694)))
(assert (= "{" (CharAt var2 96)))
(assert (= "h" (CharAt var33 131)))
(assert (= "y" (CharAt var2 146)))
(assert (= "|" (CharAt var16 415)))
(assert (= ";" (CharAt var35 742)))
(assert (= "`" (CharAt var38 887)))
(assert (= "t" (CharAt var42 754)))
(assert (= "y" (CharAt var37 518)))
(assert (= "O" (CharAt var17 676)))
(assert (= "T" (CharAt var4 833)))
(assert (= "b" (CharAt var51 305)))
(assert (= "O" (CharAt var3 698)))
(assert (= "R" (CharAt var11 510)))
(assert (= "=" (CharAt var15 935)))
(assert (= "7" (CharAt var32 262)))
(assert (= "(" (CharAt var5 861)))
(assert (= "P" (CharAt var48 167)))
(assert (= "Z" (CharAt var58 850)))
(assert (= "0" (CharAt var55 964)))
(assert (= "(" (CharAt var57 161)))
(assert (= "}" (CharAt var34 632)))
(assert (= "*" (CharAt var54 251)))
(assert (= "." (CharAt var17 505)))
(assert (= "%" (CharAt var34 843)))
(assert (= "k" (CharAt var13 359)))
(assert (= "V" (CharAt var45 423)))
(assert (= "?" (CharAt var0 908)))
(assert (= "*" (CharAt var2 108)))
(assert (= "h" (CharAt var9 504)))
(assert (= "P" (CharAt var28 850)))
(assert (= "." (CharAt var6 7)))
(assert (= "]" (CharAt var13 658)))
(assert (= "6" (CharAt var59 246)))
(assert (= "J" (CharAt var14 64)))
(assert (= "x" (CharAt var29 885)))
(assert (= "M" (CharAt var37 375)))
(assert (= "R" (CharAt var33 66)))
(assert (= "A" (CharAt var3 840)))
(assert (= "S" (CharAt var38 569)))
(assert (= "0" (CharAt var14 512)))
(assert (= "u" (CharAt var26 442)))
(assert (= "v" (CharAt var60 350)))
(assert (= "`" (CharAt var60 535)))
(assert (= "[" (CharAt var58 799)))
(assert (= "t" (CharAt var7 734)))
(assert (= "R" (CharAt var18 297)))
(assert (= "\"" (CharAt var30 0)))
(assert (= "1" (CharAt var27 689)))
(assert (= "j" (CharAt var4 941)))
(assert (= ">" (CharAt var40 86)))
(assert (= "~" (CharAt var31 316)))
(assert (= "r" (CharAt var46 357)))
(assert (= "5" (CharAt var52 176)))
(assert (= "[" (CharAt var45 947)))
(check-sat)
(get-model)